# Objective value = 7
x0,1_3 0
x0,1_8 1
x0,1_9 0
x0,1_13 0
x0,1_14 0
x0,1_18 0
x0,1_30 0
x0,1_31 0
x0,1_40 0
x0,1_45 0
x0,1_58 0
x0,1_59 0
x0,1_62 0
x0,1_67 0
x0,2_3 0
x0,2_8 0
x0,2_9 1
x0,2_13 0
x0,2_14 0
x0,2_18 0
x0,2_30 0
x0,2_31 0
x0,2_40 0
x0,2_45 0
x0,2_58 0
x0,2_59 0
x0,2_62 0
x0,2_67 0
x0,3_3 0
x0,3_8 0
x0,3_9 0
x0,3_13 0
x0,3_14 0
x0,3_18 0
x0,3_30 0
x0,3_31 0
x0,3_40 0
x0,3_45 0
x0,3_58 0
x0,3_59 0
x0,3_62 0
x0,3_67 0
x0,4_3 0
x0,4_8 0
x0,4_9 0
x0,4_13 0
x0,4_14 0
x0,4_18 0
x0,4_30 0
x0,4_31 0
x0,4_40 1
x0,4_45 0
x0,4_58 0
x0,4_59 0
x0,4_62 0
x0,4_67 0
x0,5_3 0
x0,5_8 0
x0,5_9 0
x0,5_13 0
x0,5_14 0
x0,5_18 0
x0,5_30 0
x0,5_31 0
x0,5_40 0
x0,5_45 0
x0,5_58 0
x0,5_59 0
x0,5_62 0
x0,5_67 1
x0,6_3 0
x0,6_8 0
x0,6_9 0
x0,6_13 0
x0,6_14 0
x0,6_18 0
x0,6_30 0
x0,6_31 0
x0,6_40 0
x0,6_45 0
x0,6_58 0
x0,6_59 0
x0,6_62 0
x0,6_67 0
x0,7_3 0
x0,7_8 0
x0,7_9 0
x0,7_13 0
x0,7_14 0
x0,7_18 0
x0,7_30 0
x0,7_31 0
x0,7_40 0
x0,7_45 0
x0,7_58 0
x0,7_59 0
x0,7_62 0
x0,7_67 0
x0,8_3 0
x0,8_8 0
x0,8_9 0
x0,8_13 0
x0,8_14 0
x0,8_18 0
x0,8_30 0
x0,8_31 0
x0,8_40 0
x0,8_45 0
x0,8_58 0
x0,8_59 0
x0,8_62 0
x0,8_67 0
x0,9_3 0
x0,9_8 0
x0,9_9 0
x0,9_13 0
x0,9_14 0
x0,9_18 0
x0,9_30 0
x0,9_31 0
x0,9_40 0
x0,9_45 0
x0,9_58 0
x0,9_59 0
x0,9_62 0
x0,9_67 0
x0,10_3 0
x0,10_8 0
x0,10_9 0
x0,10_13 0
x0,10_14 0
x0,10_18 0
x0,10_30 0
x0,10_31 0
x0,10_40 0
x0,10_45 0
x0,10_58 0
x0,10_59 0
x0,10_62 0
x0,10_67 0
x0,11_3 0
x0,11_8 0
x0,11_9 0
x0,11_13 0
x0,11_14 0
x0,11_18 0
x0,11_30 0
x0,11_31 0
x0,11_40 0
x0,11_45 0
x0,11_58 0
x0,11_59 0
x0,11_62 0
x0,11_67 0
x0,12_3 0
x0,12_8 0
x0,12_9 0
x0,12_13 0
x0,12_14 0
x0,12_18 0
x0,12_30 0
x0,12_31 0
x0,12_40 0
x0,12_45 0
x0,12_58 0
x0,12_59 0
x0,12_62 0
x0,12_67 0
x0,13_3 0
x0,13_8 0
x0,13_9 0
x0,13_13 0
x0,13_14 0
x0,13_18 0
x0,13_30 0
x0,13_31 0
x0,13_40 0
x0,13_45 0
x0,13_58 0
x0,13_59 0
x0,13_62 0
x0,13_67 0
x0,14_3 0
x0,14_8 0
x0,14_9 0
x0,14_13 0
x0,14_14 0
x0,14_18 0
x0,14_30 0
x0,14_31 0
x0,14_40 0
x0,14_45 0
x0,14_58 0
x0,14_59 0
x0,14_62 0
x0,14_67 0
x1,2_3 0
x1,2_8 0
x1,2_9 0
x1,2_13 0
x1,2_14 0
x1,2_18 0
x1,2_30 0
x1,2_31 0
x1,2_40 0
x1,2_45 0
x1,2_58 0
x1,2_59 0
x1,2_62 0
x1,2_67 0
x1,3_3 0
x1,3_8 0
x1,3_9 0
x1,3_13 0
x1,3_14 1
x1,3_18 0
x1,3_30 0
x1,3_31 0
x1,3_40 0
x1,3_45 0
x1,3_58 0
x1,3_59 0
x1,3_62 0
x1,3_67 0
x1,4_3 0
x1,4_8 0
x1,4_9 0
x1,4_13 0
x1,4_14 0
x1,4_18 0
x1,4_30 0
x1,4_31 0
x1,4_40 0
x1,4_45 0
x1,4_58 0
x1,4_59 0
x1,4_62 0
x1,4_67 0
x1,5_3 0
x1,5_8 0
x1,5_9 0
x1,5_13 0
x1,5_14 0
x1,5_18 0
x1,5_30 0
x1,5_31 0
x1,5_40 0
x1,5_45 0
x1,5_58 0
x1,5_59 1
x1,5_62 0
x1,5_67 0
x1,6_3 0
x1,6_8 0
x1,6_9 0
x1,6_13 0
x1,6_14 0
x1,6_18 0
x1,6_30 0
x1,6_31 0
x1,6_40 0
x1,6_45 0
x1,6_58 0
x1,6_59 0
x1,6_62 1
x1,6_67 0
x1,7_3 0
x1,7_8 0
x1,7_9 0
x1,7_13 0
x1,7_14 0
x1,7_18 0
x1,7_30 0
x1,7_31 0
x1,7_40 0
x1,7_45 0
x1,7_58 0
x1,7_59 0
x1,7_62 0
x1,7_67 0
x1,8_3 0
x1,8_8 0
x1,8_9 0
x1,8_13 0
x1,8_14 0
x1,8_18 0
x1,8_30 0
x1,8_31 0
x1,8_40 0
x1,8_45 0
x1,8_58 0
x1,8_59 0
x1,8_62 0
x1,8_67 0
x1,9_3 0
x1,9_8 0
x1,9_9 0
x1,9_13 0
x1,9_14 0
x1,9_18 0
x1,9_30 0
x1,9_31 0
x1,9_40 0
x1,9_45 0
x1,9_58 0
x1,9_59 0
x1,9_62 0
x1,9_67 0
x1,10_3 0
x1,10_8 0
x1,10_9 0
x1,10_13 0
x1,10_14 0
x1,10_18 0
x1,10_30 0
x1,10_31 0
x1,10_40 0
x1,10_45 0
x1,10_58 0
x1,10_59 0
x1,10_62 0
x1,10_67 0
x1,11_3 0
x1,11_8 0
x1,11_9 0
x1,11_13 0
x1,11_14 0
x1,11_18 0
x1,11_30 0
x1,11_31 0
x1,11_40 0
x1,11_45 0
x1,11_58 0
x1,11_59 0
x1,11_62 0
x1,11_67 0
x1,12_3 0
x1,12_8 0
x1,12_9 0
x1,12_13 0
x1,12_14 0
x1,12_18 0
x1,12_30 0
x1,12_31 0
x1,12_40 0
x1,12_45 0
x1,12_58 0
x1,12_59 0
x1,12_62 0
x1,12_67 0
x1,13_3 0
x1,13_8 0
x1,13_9 0
x1,13_13 0
x1,13_14 0
x1,13_18 0
x1,13_30 0
x1,13_31 0
x1,13_40 0
x1,13_45 0
x1,13_58 0
x1,13_59 0
x1,13_62 0
x1,13_67 0
x1,14_3 0
x1,14_8 0
x1,14_9 0
x1,14_13 0
x1,14_14 0
x1,14_18 0
x1,14_30 0
x1,14_31 0
x1,14_40 0
x1,14_45 0
x1,14_58 0
x1,14_59 0
x1,14_62 0
x1,14_67 0
x2,3_3 0
x2,3_8 0
x2,3_9 0
x2,3_13 1
x2,3_14 0
x2,3_18 0
x2,3_30 0
x2,3_31 0
x2,3_40 0
x2,3_45 0
x2,3_58 0
x2,3_59 0
x2,3_62 0
x2,3_67 0
x2,4_3 0
x2,4_8 0
x2,4_9 0
x2,4_13 0
x2,4_14 0
x2,4_18 0
x2,4_30 0
x2,4_31 1
x2,4_40 0
x2,4_45 0
x2,4_58 0
x2,4_59 0
x2,4_62 0
x2,4_67 0
x2,5_3 0
x2,5_8 0
x2,5_9 0
x2,5_13 0
x2,5_14 0
x2,5_18 0
x2,5_30 0
x2,5_31 0
x2,5_40 0
x2,5_45 0
x2,5_58 1
x2,5_59 0
x2,5_62 0
x2,5_67 0
x2,6_3 0
x2,6_8 0
x2,6_9 0
x2,6_13 0
x2,6_14 0
x2,6_18 0
x2,6_30 0
x2,6_31 0
x2,6_40 0
x2,6_45 0
x2,6_58 0
x2,6_59 0
x2,6_62 0
x2,6_67 0
x2,7_3 0
x2,7_8 0
x2,7_9 0
x2,7_13 0
x2,7_14 0
x2,7_18 0
x2,7_30 0
x2,7_31 0
x2,7_40 0
x2,7_45 0
x2,7_58 0
x2,7_59 0
x2,7_62 0
x2,7_67 0
x2,8_3 0
x2,8_8 0
x2,8_9 0
x2,8_13 0
x2,8_14 0
x2,8_18 0
x2,8_30 0
x2,8_31 0
x2,8_40 0
x2,8_45 0
x2,8_58 0
x2,8_59 0
x2,8_62 0
x2,8_67 0
x2,9_3 0
x2,9_8 0
x2,9_9 0
x2,9_13 0
x2,9_14 0
x2,9_18 0
x2,9_30 0
x2,9_31 0
x2,9_40 0
x2,9_45 0
x2,9_58 0
x2,9_59 0
x2,9_62 0
x2,9_67 0
x2,10_3 0
x2,10_8 0
x2,10_9 0
x2,10_13 0
x2,10_14 0
x2,10_18 0
x2,10_30 0
x2,10_31 0
x2,10_40 0
x2,10_45 0
x2,10_58 0
x2,10_59 0
x2,10_62 0
x2,10_67 0
x2,11_3 0
x2,11_8 0
x2,11_9 0
x2,11_13 0
x2,11_14 0
x2,11_18 0
x2,11_30 0
x2,11_31 0
x2,11_40 0
x2,11_45 0
x2,11_58 0
x2,11_59 0
x2,11_62 0
x2,11_67 0
x2,12_3 0
x2,12_8 0
x2,12_9 0
x2,12_13 0
x2,12_14 0
x2,12_18 0
x2,12_30 0
x2,12_31 0
x2,12_40 0
x2,12_45 0
x2,12_58 0
x2,12_59 0
x2,12_62 0
x2,12_67 0
x2,13_3 0
x2,13_8 0
x2,13_9 0
x2,13_13 0
x2,13_14 0
x2,13_18 0
x2,13_30 0
x2,13_31 0
x2,13_40 0
x2,13_45 0
x2,13_58 0
x2,13_59 0
x2,13_62 0
x2,13_67 0
x2,14_3 0
x2,14_8 0
x2,14_9 0
x2,14_13 0
x2,14_14 0
x2,14_18 0
x2,14_30 0
x2,14_31 0
x2,14_40 0
x2,14_45 0
x2,14_58 0
x2,14_59 0
x2,14_62 0
x2,14_67 0
x3,4_3 0
x3,4_8 0
x3,4_9 0
x3,4_13 0
x3,4_14 0
x3,4_18 1
x3,4_30 0
x3,4_31 0
x3,4_40 0
x3,4_45 0
x3,4_58 0
x3,4_59 0
x3,4_62 0
x3,4_67 0
x3,5_3 0
x3,5_8 0
x3,5_9 0
x3,5_13 0
x3,5_14 0
x3,5_18 0
x3,5_30 0
x3,5_31 0
x3,5_40 0
x3,5_45 1
x3,5_58 0
x3,5_59 0
x3,5_62 0
x3,5_67 0
x3,6_3 0
x3,6_8 0
x3,6_9 0
x3,6_13 0
x3,6_14 0
x3,6_18 0
x3,6_30 0
x3,6_31 0
x3,6_40 0
x3,6_45 0
x3,6_58 0
x3,6_59 0
x3,6_62 0
x3,6_67 0
x3,7_3 0
x3,7_8 0
x3,7_9 0
x3,7_13 0
x3,7_14 0
x3,7_18 0
x3,7_30 0
x3,7_31 0
x3,7_40 0
x3,7_45 0
x3,7_58 0
x3,7_59 0
x3,7_62 0
x3,7_67 0
x3,8_3 0
x3,8_8 0
x3,8_9 0
x3,8_13 0
x3,8_14 0
x3,8_18 0
x3,8_30 0
x3,8_31 0
x3,8_40 0
x3,8_45 0
x3,8_58 0
x3,8_59 0
x3,8_62 0
x3,8_67 0
x3,9_3 0
x3,9_8 0
x3,9_9 0
x3,9_13 0
x3,9_14 0
x3,9_18 0
x3,9_30 0
x3,9_31 0
x3,9_40 0
x3,9_45 0
x3,9_58 0
x3,9_59 0
x3,9_62 0
x3,9_67 0
x3,10_3 0
x3,10_8 0
x3,10_9 0
x3,10_13 0
x3,10_14 0
x3,10_18 0
x3,10_30 0
x3,10_31 0
x3,10_40 0
x3,10_45 0
x3,10_58 0
x3,10_59 0
x3,10_62 0
x3,10_67 0
x3,11_3 0
x3,11_8 0
x3,11_9 0
x3,11_13 0
x3,11_14 0
x3,11_18 0
x3,11_30 0
x3,11_31 0
x3,11_40 0
x3,11_45 0
x3,11_58 0
x3,11_59 0
x3,11_62 0
x3,11_67 0
x3,12_3 0
x3,12_8 0
x3,12_9 0
x3,12_13 0
x3,12_14 0
x3,12_18 0
x3,12_30 0
x3,12_31 0
x3,12_40 0
x3,12_45 0
x3,12_58 0
x3,12_59 0
x3,12_62 0
x3,12_67 0
x3,13_3 0
x3,13_8 0
x3,13_9 0
x3,13_13 0
x3,13_14 0
x3,13_18 0
x3,13_30 0
x3,13_31 0
x3,13_40 0
x3,13_45 0
x3,13_58 0
x3,13_59 0
x3,13_62 0
x3,13_67 0
x3,14_3 0
x3,14_8 0
x3,14_9 0
x3,14_13 0
x3,14_14 0
x3,14_18 0
x3,14_30 0
x3,14_31 0
x3,14_40 0
x3,14_45 0
x3,14_58 0
x3,14_59 0
x3,14_62 0
x3,14_67 0
x4,5_3 0
x4,5_8 0
x4,5_9 0
x4,5_13 0
x4,5_14 0
x4,5_18 0
x4,5_30 0
x4,5_31 0
x4,5_40 0
x4,5_45 0
x4,5_58 0
x4,5_59 0
x4,5_62 0
x4,5_67 0
x4,6_3 0
x4,6_8 0
x4,6_9 0
x4,6_13 0
x4,6_14 0
x4,6_18 0
x4,6_30 1
x4,6_31 0
x4,6_40 0
x4,6_45 0
x4,6_58 0
x4,6_59 0
x4,6_62 0
x4,6_67 0
x4,7_3 0
x4,7_8 0
x4,7_9 0
x4,7_13 0
x4,7_14 0
x4,7_18 0
x4,7_30 0
x4,7_31 0
x4,7_40 0
x4,7_45 0
x4,7_58 0
x4,7_59 0
x4,7_62 0
x4,7_67 0
x4,8_3 0
x4,8_8 0
x4,8_9 0
x4,8_13 0
x4,8_14 0
x4,8_18 0
x4,8_30 0
x4,8_31 0
x4,8_40 0
x4,8_45 0
x4,8_58 0
x4,8_59 0
x4,8_62 0
x4,8_67 0
x4,9_3 0
x4,9_8 0
x4,9_9 0
x4,9_13 0
x4,9_14 0
x4,9_18 0
x4,9_30 0
x4,9_31 0
x4,9_40 0
x4,9_45 0
x4,9_58 0
x4,9_59 0
x4,9_62 0
x4,9_67 0
x4,10_3 0
x4,10_8 0
x4,10_9 0
x4,10_13 0
x4,10_14 0
x4,10_18 0
x4,10_30 0
x4,10_31 0
x4,10_40 0
x4,10_45 0
x4,10_58 0
x4,10_59 0
x4,10_62 0
x4,10_67 0
x4,11_3 0
x4,11_8 0
x4,11_9 0
x4,11_13 0
x4,11_14 0
x4,11_18 0
x4,11_30 0
x4,11_31 0
x4,11_40 0
x4,11_45 0
x4,11_58 0
x4,11_59 0
x4,11_62 0
x4,11_67 0
x4,12_3 0
x4,12_8 0
x4,12_9 0
x4,12_13 0
x4,12_14 0
x4,12_18 0
x4,12_30 0
x4,12_31 0
x4,12_40 0
x4,12_45 0
x4,12_58 0
x4,12_59 0
x4,12_62 0
x4,12_67 0
x4,13_3 0
x4,13_8 0
x4,13_9 0
x4,13_13 0
x4,13_14 0
x4,13_18 0
x4,13_30 0
x4,13_31 0
x4,13_40 0
x4,13_45 0
x4,13_58 0
x4,13_59 0
x4,13_62 0
x4,13_67 0
x4,14_3 0
x4,14_8 0
x4,14_9 0
x4,14_13 0
x4,14_14 0
x4,14_18 0
x4,14_30 0
x4,14_31 0
x4,14_40 0
x4,14_45 0
x4,14_58 0
x4,14_59 0
x4,14_62 0
x4,14_67 0
x5,6_3 1
x5,6_8 0
x5,6_9 0
x5,6_13 0
x5,6_14 0
x5,6_18 0
x5,6_30 0
x5,6_31 0
x5,6_40 0
x5,6_45 0
x5,6_58 0
x5,6_59 0
x5,6_62 0
x5,6_67 0
x5,7_3 0
x5,7_8 0
x5,7_9 0
x5,7_13 0
x5,7_14 0
x5,7_18 0
x5,7_30 0
x5,7_31 0
x5,7_40 0
x5,7_45 0
x5,7_58 0
x5,7_59 0
x5,7_62 0
x5,7_67 0
x5,8_3 0
x5,8_8 0
x5,8_9 0
x5,8_13 0
x5,8_14 0
x5,8_18 0
x5,8_30 0
x5,8_31 0
x5,8_40 0
x5,8_45 0
x5,8_58 0
x5,8_59 0
x5,8_62 0
x5,8_67 0
x5,9_3 0
x5,9_8 0
x5,9_9 0
x5,9_13 0
x5,9_14 0
x5,9_18 0
x5,9_30 0
x5,9_31 0
x5,9_40 0
x5,9_45 0
x5,9_58 0
x5,9_59 0
x5,9_62 0
x5,9_67 0
x5,10_3 0
x5,10_8 0
x5,10_9 0
x5,10_13 0
x5,10_14 0
x5,10_18 0
x5,10_30 0
x5,10_31 0
x5,10_40 0
x5,10_45 0
x5,10_58 0
x5,10_59 0
x5,10_62 0
x5,10_67 0
x5,11_3 0
x5,11_8 0
x5,11_9 0
x5,11_13 0
x5,11_14 0
x5,11_18 0
x5,11_30 0
x5,11_31 0
x5,11_40 0
x5,11_45 0
x5,11_58 0
x5,11_59 0
x5,11_62 0
x5,11_67 0
x5,12_3 0
x5,12_8 0
x5,12_9 0
x5,12_13 0
x5,12_14 0
x5,12_18 0
x5,12_30 0
x5,12_31 0
x5,12_40 0
x5,12_45 0
x5,12_58 0
x5,12_59 0
x5,12_62 0
x5,12_67 0
x5,13_3 0
x5,13_8 0
x5,13_9 0
x5,13_13 0
x5,13_14 0
x5,13_18 0
x5,13_30 0
x5,13_31 0
x5,13_40 0
x5,13_45 0
x5,13_58 0
x5,13_59 0
x5,13_62 0
x5,13_67 0
x5,14_3 0
x5,14_8 0
x5,14_9 0
x5,14_13 0
x5,14_14 0
x5,14_18 0
x5,14_30 0
x5,14_31 0
x5,14_40 0
x5,14_45 0
x5,14_58 0
x5,14_59 0
x5,14_62 0
x5,14_67 0
x6,7_3 0
x6,7_8 0
x6,7_9 0
x6,7_13 0
x6,7_14 0
x6,7_18 0
x6,7_30 0
x6,7_31 0
x6,7_40 0
x6,7_45 0
x6,7_58 0
x6,7_59 0
x6,7_62 0
x6,7_67 0
x6,8_3 0
x6,8_8 0
x6,8_9 0
x6,8_13 0
x6,8_14 0
x6,8_18 0
x6,8_30 0
x6,8_31 0
x6,8_40 0
x6,8_45 0
x6,8_58 0
x6,8_59 0
x6,8_62 0
x6,8_67 0
x6,9_3 0
x6,9_8 0
x6,9_9 0
x6,9_13 0
x6,9_14 0
x6,9_18 0
x6,9_30 0
x6,9_31 0
x6,9_40 0
x6,9_45 0
x6,9_58 0
x6,9_59 0
x6,9_62 0
x6,9_67 0
x6,10_3 0
x6,10_8 0
x6,10_9 0
x6,10_13 0
x6,10_14 0
x6,10_18 0
x6,10_30 0
x6,10_31 0
x6,10_40 0
x6,10_45 0
x6,10_58 0
x6,10_59 0
x6,10_62 0
x6,10_67 0
x6,11_3 0
x6,11_8 0
x6,11_9 0
x6,11_13 0
x6,11_14 0
x6,11_18 0
x6,11_30 0
x6,11_31 0
x6,11_40 0
x6,11_45 0
x6,11_58 0
x6,11_59 0
x6,11_62 0
x6,11_67 0
x6,12_3 0
x6,12_8 0
x6,12_9 0
x6,12_13 0
x6,12_14 0
x6,12_18 0
x6,12_30 0
x6,12_31 0
x6,12_40 0
x6,12_45 0
x6,12_58 0
x6,12_59 0
x6,12_62 0
x6,12_67 0
x6,13_3 0
x6,13_8 0
x6,13_9 0
x6,13_13 0
x6,13_14 0
x6,13_18 0
x6,13_30 0
x6,13_31 0
x6,13_40 0
x6,13_45 0
x6,13_58 0
x6,13_59 0
x6,13_62 0
x6,13_67 0
x6,14_3 0
x6,14_8 0
x6,14_9 0
x6,14_13 0
x6,14_14 0
x6,14_18 0
x6,14_30 0
x6,14_31 0
x6,14_40 0
x6,14_45 0
x6,14_58 0
x6,14_59 0
x6,14_62 0
x6,14_67 0
x7,8_3 0
x7,8_8 0
x7,8_9 0
x7,8_13 0
x7,8_14 0
x7,8_18 0
x7,8_30 0
x7,8_31 0
x7,8_40 0
x7,8_45 0
x7,8_58 0
x7,8_59 0
x7,8_62 0
x7,8_67 0
x7,9_3 0
x7,9_8 0
x7,9_9 0
x7,9_13 0
x7,9_14 0
x7,9_18 0
x7,9_30 0
x7,9_31 0
x7,9_40 0
x7,9_45 0
x7,9_58 0
x7,9_59 0
x7,9_62 0
x7,9_67 0
x7,10_3 0
x7,10_8 0
x7,10_9 0
x7,10_13 0
x7,10_14 0
x7,10_18 0
x7,10_30 0
x7,10_31 0
x7,10_40 0
x7,10_45 0
x7,10_58 0
x7,10_59 0
x7,10_62 0
x7,10_67 0
x7,11_3 0
x7,11_8 0
x7,11_9 0
x7,11_13 0
x7,11_14 0
x7,11_18 0
x7,11_30 0
x7,11_31 0
x7,11_40 0
x7,11_45 0
x7,11_58 0
x7,11_59 0
x7,11_62 0
x7,11_67 0
x7,12_3 0
x7,12_8 0
x7,12_9 0
x7,12_13 0
x7,12_14 0
x7,12_18 0
x7,12_30 0
x7,12_31 0
x7,12_40 0
x7,12_45 0
x7,12_58 0
x7,12_59 0
x7,12_62 0
x7,12_67 0
x7,13_3 0
x7,13_8 0
x7,13_9 0
x7,13_13 0
x7,13_14 0
x7,13_18 0
x7,13_30 0
x7,13_31 0
x7,13_40 0
x7,13_45 0
x7,13_58 0
x7,13_59 0
x7,13_62 0
x7,13_67 0
x7,14_3 0
x7,14_8 0
x7,14_9 0
x7,14_13 0
x7,14_14 0
x7,14_18 0
x7,14_30 0
x7,14_31 0
x7,14_40 0
x7,14_45 0
x7,14_58 0
x7,14_59 0
x7,14_62 0
x7,14_67 0
x8,9_3 0
x8,9_8 0
x8,9_9 0
x8,9_13 0
x8,9_14 0
x8,9_18 0
x8,9_30 0
x8,9_31 0
x8,9_40 0
x8,9_45 0
x8,9_58 0
x8,9_59 0
x8,9_62 0
x8,9_67 0
x8,10_3 0
x8,10_8 0
x8,10_9 0
x8,10_13 0
x8,10_14 0
x8,10_18 0
x8,10_30 0
x8,10_31 0
x8,10_40 0
x8,10_45 0
x8,10_58 0
x8,10_59 0
x8,10_62 0
x8,10_67 0
x8,11_3 0
x8,11_8 0
x8,11_9 0
x8,11_13 0
x8,11_14 0
x8,11_18 0
x8,11_30 0
x8,11_31 0
x8,11_40 0
x8,11_45 0
x8,11_58 0
x8,11_59 0
x8,11_62 0
x8,11_67 0
x8,12_3 0
x8,12_8 0
x8,12_9 0
x8,12_13 0
x8,12_14 0
x8,12_18 0
x8,12_30 0
x8,12_31 0
x8,12_40 0
x8,12_45 0
x8,12_58 0
x8,12_59 0
x8,12_62 0
x8,12_67 0
x8,13_3 0
x8,13_8 0
x8,13_9 0
x8,13_13 0
x8,13_14 0
x8,13_18 0
x8,13_30 0
x8,13_31 0
x8,13_40 0
x8,13_45 0
x8,13_58 0
x8,13_59 0
x8,13_62 0
x8,13_67 0
x8,14_3 0
x8,14_8 0
x8,14_9 0
x8,14_13 0
x8,14_14 0
x8,14_18 0
x8,14_30 0
x8,14_31 0
x8,14_40 0
x8,14_45 0
x8,14_58 0
x8,14_59 0
x8,14_62 0
x8,14_67 0
x9,10_3 0
x9,10_8 0
x9,10_9 0
x9,10_13 0
x9,10_14 0
x9,10_18 0
x9,10_30 0
x9,10_31 0
x9,10_40 0
x9,10_45 0
x9,10_58 0
x9,10_59 0
x9,10_62 0
x9,10_67 0
x9,11_3 0
x9,11_8 0
x9,11_9 0
x9,11_13 0
x9,11_14 0
x9,11_18 0
x9,11_30 0
x9,11_31 0
x9,11_40 0
x9,11_45 0
x9,11_58 0
x9,11_59 0
x9,11_62 0
x9,11_67 0
x9,12_3 0
x9,12_8 0
x9,12_9 0
x9,12_13 0
x9,12_14 0
x9,12_18 0
x9,12_30 0
x9,12_31 0
x9,12_40 0
x9,12_45 0
x9,12_58 0
x9,12_59 0
x9,12_62 0
x9,12_67 0
x9,13_3 0
x9,13_8 0
x9,13_9 0
x9,13_13 0
x9,13_14 0
x9,13_18 0
x9,13_30 0
x9,13_31 0
x9,13_40 0
x9,13_45 0
x9,13_58 0
x9,13_59 0
x9,13_62 0
x9,13_67 0
x9,14_3 0
x9,14_8 0
x9,14_9 0
x9,14_13 0
x9,14_14 0
x9,14_18 0
x9,14_30 0
x9,14_31 0
x9,14_40 0
x9,14_45 0
x9,14_58 0
x9,14_59 0
x9,14_62 0
x9,14_67 0
x10,11_3 0
x10,11_8 0
x10,11_9 0
x10,11_13 0
x10,11_14 0
x10,11_18 0
x10,11_30 0
x10,11_31 0
x10,11_40 0
x10,11_45 0
x10,11_58 0
x10,11_59 0
x10,11_62 0
x10,11_67 0
x10,12_3 0
x10,12_8 0
x10,12_9 0
x10,12_13 0
x10,12_14 0
x10,12_18 0
x10,12_30 0
x10,12_31 0
x10,12_40 0
x10,12_45 0
x10,12_58 0
x10,12_59 0
x10,12_62 0
x10,12_67 0
x10,13_3 0
x10,13_8 0
x10,13_9 0
x10,13_13 0
x10,13_14 0
x10,13_18 0
x10,13_30 0
x10,13_31 0
x10,13_40 0
x10,13_45 0
x10,13_58 0
x10,13_59 0
x10,13_62 0
x10,13_67 0
x10,14_3 0
x10,14_8 0
x10,14_9 0
x10,14_13 0
x10,14_14 0
x10,14_18 0
x10,14_30 0
x10,14_31 0
x10,14_40 0
x10,14_45 0
x10,14_58 0
x10,14_59 0
x10,14_62 0
x10,14_67 0
x11,12_3 0
x11,12_8 0
x11,12_9 0
x11,12_13 0
x11,12_14 0
x11,12_18 0
x11,12_30 0
x11,12_31 0
x11,12_40 0
x11,12_45 0
x11,12_58 0
x11,12_59 0
x11,12_62 0
x11,12_67 0
x11,13_3 0
x11,13_8 0
x11,13_9 0
x11,13_13 0
x11,13_14 0
x11,13_18 0
x11,13_30 0
x11,13_31 0
x11,13_40 0
x11,13_45 0
x11,13_58 0
x11,13_59 0
x11,13_62 0
x11,13_67 0
x11,14_3 0
x11,14_8 0
x11,14_9 0
x11,14_13 0
x11,14_14 0
x11,14_18 0
x11,14_30 0
x11,14_31 0
x11,14_40 0
x11,14_45 0
x11,14_58 0
x11,14_59 0
x11,14_62 0
x11,14_67 0
x12,13_3 0
x12,13_8 0
x12,13_9 0
x12,13_13 0
x12,13_14 0
x12,13_18 0
x12,13_30 0
x12,13_31 0
x12,13_40 0
x12,13_45 0
x12,13_58 0
x12,13_59 0
x12,13_62 0
x12,13_67 0
x12,14_3 0
x12,14_8 0
x12,14_9 0
x12,14_13 0
x12,14_14 0
x12,14_18 0
x12,14_30 0
x12,14_31 0
x12,14_40 0
x12,14_45 0
x12,14_58 0
x12,14_59 0
x12,14_62 0
x12,14_67 0
x13,14_3 0
x13,14_8 0
x13,14_9 0
x13,14_13 0
x13,14_14 0
x13,14_18 0
x13,14_30 0
x13,14_31 0
x13,14_40 0
x13,14_45 0
x13,14_58 0
x13,14_59 0
x13,14_62 0
x13,14_67 0
z0 1
z1 1
z2 1
z3 1
z4 1
z5 1
z6 1
z7 0
z8 0
z9 0
z10 0
z11 0
z12 0
z13 0
z14 0
p0 36
p1 44
p2 45
p3 58
p4 76
p5 103
p6 106
p7 107
p8 108
p9 109
p10 110
p11 111
p12 112
p13 113
p14 114
